000 000 000 000 -99 000 000 000 000 000 -99 -99 000 000 000 000 000 000 000 002 002 000 000 000 000 001 000 000 -99 -99 -99
000 000 000 000 000 000 000 000 000 000 -99 -99 000 000 000 000 000 000 000 002 002 000 000 000 000 001 002 000 -99 -99 -99
000 000 000 000 000 000 000 000 000 001 000 -99 -99 -99 000 000 000 000 000 000 000 000 000 000 000 000 001 000 -99 -99 -99
000 000 000 000 000 000 000 000 000 001 000 000 000 000 000 000 000 000 000 000 000 000 000 000 000 000 001 000 -99 -99 -99
000 000 000 000 000 000 000 000 000 001 000 000 000 000 000 000 -99 000 000 000 000 000 000 000 001 001 001 001 000 003 001
001 001 000 000 000 000 000 000 000 000 000 000 000 000 000 000 000 000 000 000 000 000 000 000 001 001 -99 -99 -99 004 003
000 002 000 000 000 000 000 000 000 000 001 001 002 000 000 000 000 000 000 000 000 000 000 000 001 002 -99 -99 -99 008 014
000 000 000 000 000 000 000 000 000 000 004 002 005 000 000 000 000 000 000 000 000 000 000 000 001 003 003 -99 -99 010 015
000 000 000 000 000 000 000 000 001 001 002 005 004 001 000 000 000 000 -99 000 000 -99 000 000 002 005 005 006 005 011 016
000 000 000 000 000 000 000 000 001 001 003 006 003 000 000 000 000 000 000 000 000 000 -99 001 003 007 006 007 005 008 006
002 000 000 000 000 000 000 000 000 000 001 002 002 000 000 000 000 000 000 -99 000 000 -99 001 003 009 012 006 006 006 006
002 000 000 000 000 000 000 000 000 000 000 000 000 000 -99 000 000 000 000 -99 000 000 -99 001 003 006 004 008 007 005 003
001 001 000 000 000 000 000 000 000 000 000 000 000 000 -99 000 000 000 000 000 -99 000 -99 000 000 004 001 001 002 001 001
002 004 001 000 000 000 000 000 -99 000 000 000 000 000 -99 -99 000 000 000 000 -99 -99 -99 000 000 001 000 000 000 001 000
000 002 001 000 000 000 000 -99 -99 -99 -99 000 000 000 000 000 -99 000 000 000 -99 -99 -99 -99 000 000 000 000 000 -99 000
000 001 000 000 000 000 000 000 000 -99 -99 -99 -99 000 000 000 -99 000 000 000 000 -99 -99 -99 -99 000 000 000 -99 -99 -99
000 000 000 000 -99 000 000 000 000 000 000 000 000 -99 000 000 000 000 000 000 000 000 -99 -99 -99 000 000 -99 -99 000 -99
000 -99 -99 -99 -99 -99 -99 000 000 000 000 000 000 -99 -99 000 000 -99 000 000 000 -99 -99 -99 -99 -99 -99 -99 -99 000 -99
000 -99 -99 -99 -99 -99 -99 000 000 000 000 000 000 000 000 000 000 000 000 000 000 -99 -99 -99 -99 000 000 -99 -99 -99 -99
000 000 000 -99 -99 -99 -99 000 000 000 000 000 000 000 000 000 -99 000 000 000 000 -99 -99 -99 -99 -99 -99 -99 -99 -99 -99
000 000 000 -99 -99 -99 -99 -99 000 000 000 000 000 000 000 -99 -99 000 000 000 000 000 000 -99 -99 -99 -99 -99 -99 -99 -99
000 000 -99 -99 -99 -99 -99 -99 -99 000 000 000 000 000 000 -99 -99 000 000 000 000 000 000 -99 -99 -99 -99 -99 -99 -99 -99
000 000 -99 -99 000 000 -99 -99 -99 000 000 000 000 000 -99 -99 -99 000 -99 -99 -99 000 000 -99 -99 -99 -99 -99 -99 -99 -99
000 000 000 000 -99 000 -99 -99 000 000 000 000 000 000 000 -99 000 000 -99 -99 -99 000 000 -99 -99 -99 -99 -99 -99 -99 -99
000 000 000 000 000 000 000 -99 000 000 000 000 000 -99 000 000 000 000 -99 -99 -99 000 -99 -99 -99 -99 -99 -99 -99 -99 -99
000 000 000 000 000 000 000 000 -99 000 000 000 000 000 000 000 000 000 -99 -99 -99 000 -99 -99 -99 -99 -99 -99 -99 -99 -99
000 000 000 000 000 000 000 000 000 000 000 000 000 000 000 -99 000 000 000 000 000 -99 -99 -99 -99 -99 -99 -99 -99 -99 -99
-99 000 000 000 000 000 -99 000 000 000 -99 000 000 000 000 000 000 000 000 000 000 -99 -99 -99 -99 -99 -99 -99 -99 -99 000
000 000 000 000 000 000 -99 000 000 000 000 -99 000 000 000 000 000 000 000 000 000 -99 -99 -99 -99 -99 -99 -99 -99 -99 000
000 000 000 000 000 000 -99 000 000 000 000 -99 000 000 000 000 000 000 000 000 -99 -99 -99 -99 -99 -99 -99 -99 -99 -99 -99
000 000 000 000 000 -99 -99 000 000 000 000 -99 -99 000 000 000 -99 -99 000 000 000 -99 -99 -99 -99 -99 -99 -99 -99 -99 -99
000 000 000 000 000 -99 -99 -99 000 000 000 -99 -99 -99 000 000 -99 -99 -99 -99 -99 -99 -99 -99 000 -99 -99 -99 -99 -99 -99
000 000 000 000 000 -99 000 000 000 000 000 -99 -99 -99 000 000 -99 -99 -99 000 -99 -99 -99 -99 000 -99 -99 000 000 000 000
000 000 000 000 000 000 000 000 000 000 -99 -99 -99 000 000 000 -99 -99 -99 000 000 -99 -99 -99 000 -99 -99 000 000 000 000
000 000 000 000 000 000 000 000 000 000 -99 -99 000 000 000 -99 000 -99 000 000 -99 -99 -99 000 000 000 000 000 000 000 000
000 000 000 000 000 000 000 000 000 000 -99 000 000 000 000 -99 000 -99 -99 000 000 000 -99 000 000 000 000 000 000 000 000
000 000 000 000 000 000 000 000 000 000 -99 000 000 000 -99 000 000 -99 000 000 000 000 -99 -99 000 000 000 000 000 000 000
-99 -99 000 000 000 000 000 000 000 -99 000 000 000 000 000 000 000 -99 000 000 000 -99 000 000 000 000 000 000 000 000 000
-99 -99 000 000 000 000 000 000 000 -99 -99 000 000 000 000 000 -99 000 000 000 000 -99 -99 000 000 000 000 000 000 000 -99
000 000 000 000 000 000 000 000 000 -99 -99 000 000 000 000 000 -99 000 000 000 000 -99 000 000 000 000 -99 000 000 000 -99
000 000 000 000 000 000 000 000 -99 000 000 000 000 000 000 000 000 000 000 000 000 000 000 000 000 000 000 -99 -99 -99 -99
000 000 000 000 000 000 000 000 000 000 000 000 000 000 000 000 000 000 000 000 000 000 000 000 000 000 -99 -99 000 -99 000
000 000 000 000 000 000 000 000 000 000 000 000 000 000 000 000 000 000 000 000 000 000 000 000 000 000 -99 -99 000 -99 000
000 000 000 000 000 000 000 000 000 000 000 000 000 000 000 000 000 000 000 000 000 000 000 000 000 000 -99 -99 -99 -99 000
000 000 000 000 000 000 000 000 000 000 000 000 000 000 000 000 000 000 000 000 000 000 000 000 000 -99 -99 000 -99 -99 -99
000 000 000 000 000 000 000 000 000 000 000 000 000 000 000 000 000 000 000 000 000 000 -99 000 000 -99 -99 000 -99 -99 000
000 000 000 000 000 000 000 000 000 000 000 000 000 000 000 000 000 000 000 000 000 000 000 -99 000 -99 -99 -99 -99 -99 -99
000 000 000 000 000 000 000 000 000 000 000 000 000 000 000 000 -99 000 000 000 000 000 000 000 000 000 -99 000 000 -99 -99
000 000 000 000 000 000 000 000 000 000 000 000 000 000 000 000 -99 000 000 000 000 000 000 000 000 000 -99 000 000 -99 -99
000 000 000 000 000 000 000 000 000 000 000 000 000 000 000 -99 000 000 000 000 000 000 000 000 000 000 000 000 000 -99 -99
000 000 000 000 000 000 000 000 000 000 000 000 000 000 000 000 000 000 000 000 000 000 000 000 000 000 000 000 000 -99 -99
000 000 000 000 000 000 000 000 000 000 -99 000 000 000 000 000 000 000 000 000 000 000 000 -99 -99 000 000 -99 -99 -99 -99
000 000 000 000 000 000 000 000 000 000 -99 -99 000 000 000 000 000 000 000 000 000 000 000 -99 000 000 -99 -99 -99 -99 -99
000 000 000 000 000 000 000 000 -99 -99 -99 000 000 000 000 000 000 000 000 000 000 000 000 000 000 -99 -99 -99 -99 -99 -99
000 000 000 000 000 000 000 -99 -99 -99 -99 000 000 000 000 000 000 000 000 000 000 000 000 000 000 -99 -99 -99 -99 -99 -99
